# 
# This is the geometry file that corresponds to the current relaxation step.
# If you do not want this file to be written, set the "write_restart_geometry" flag to .false.
#  aims_uuid : B6FE4D02-40E7-495B-A06E-4E730DC43F7B                                
# 
lattice_vector     11.53627020      0.00000000      0.00000000
lattice_vector      5.76813510      9.99070306      0.00000000
lattice_vector      0.00000000      0.00000000     41.77415647
atom       1.44203378      0.83255859      0.00000000 Au
  constrain_relaxation .true.
atom       4.32610133      0.83255859      0.00000000 Pd
  constrain_relaxation .true.
atom       7.21016888      0.83255859      0.00000000 Au
  constrain_relaxation .true.
atom      10.09423643      0.83255859      0.00000000 Au
  constrain_relaxation .true.
atom       2.88406755      3.33023435      0.00000000 Au
  constrain_relaxation .true.
atom       5.76813510      3.33023435      0.00000000 Au
  constrain_relaxation .true.
atom       8.65220265      3.33023435      0.00000000 Au
  constrain_relaxation .true.
atom      11.53627020      3.33023435      0.00000000 Au
  constrain_relaxation .true.
atom       4.32610133      5.82791012      0.00000000 Au
  constrain_relaxation .true.
atom       7.21016888      5.82791012      0.00000000 Pd
  constrain_relaxation .true.
atom      10.09423643      5.82791012      0.00000000 Au
  constrain_relaxation .true.
atom      12.97830398      5.82791012      0.00000000 Au
  constrain_relaxation .true.
atom       5.76813510      8.32558588      0.00000000 Au
  constrain_relaxation .true.
atom       8.65220265      8.32558588      0.00000000 Pd
  constrain_relaxation .true.
atom      11.53627020      8.32558588      0.00000000 Pd
  constrain_relaxation .true.
atom      14.42033775      8.32558588      0.00000000 Pd
  constrain_relaxation .true.
atom       0.00000000      1.66511718      2.35483129 Au
  constrain_relaxation .true.
atom       2.88406755      1.66511718      2.35483129 Pd
  constrain_relaxation .true.
atom       5.76813510      1.66511718      2.35483129 Au
  constrain_relaxation .true.
atom       8.65220265      1.66511718      2.35483129 Au
  constrain_relaxation .true.
atom       1.44203378      4.16279294      2.35483129 Au
  constrain_relaxation .true.
atom       4.32610133      4.16279294      2.35483129 Au
  constrain_relaxation .true.
atom       7.21016888      4.16279294      2.35483129 Au
  constrain_relaxation .true.
atom      10.09423643      4.16279294      2.35483129 Pd
  constrain_relaxation .true.
atom       2.88406755      6.66046871      2.35483129 Au
  constrain_relaxation .true.
atom       5.76813510      6.66046871      2.35483129 Au
  constrain_relaxation .true.
atom       8.65220265      6.66046871      2.35483129 Au
  constrain_relaxation .true.
atom      11.53627020      6.66046871      2.35483129 Pd
  constrain_relaxation .true.
atom       4.32610133      9.15814447      2.35483129 Au
  constrain_relaxation .true.
atom       7.21016888      9.15814447      2.35483129 Au
  constrain_relaxation .true.
atom      10.09423643      9.15814447      2.35483129 Au
  constrain_relaxation .true.
atom      12.97830398      9.15814447      2.35483129 Pd
  constrain_relaxation .true.
atom       0.00000000      0.00000000      4.70966259 Au
  constrain_relaxation .true.
atom       2.88406755      0.00000000      4.70966259 Au
  constrain_relaxation .true.
atom       5.76813510      0.00000000      4.70966259 Au
  constrain_relaxation .true.
atom       8.65220265      0.00000000      4.70966259 Au
  constrain_relaxation .true.
atom       1.44203378      2.49767576      4.70966259 Pd
  constrain_relaxation .true.
atom       4.32610133      2.49767576      4.70966259 Au
  constrain_relaxation .true.
atom       7.21016888      2.49767576      4.70966259 Au
  constrain_relaxation .true.
atom      10.09423643      2.49767576      4.70966259 Au
  constrain_relaxation .true.
atom       2.88406755      4.99535153      4.70966259 Pd
  constrain_relaxation .true.
atom       5.76813510      4.99535153      4.70966259 Pd
  constrain_relaxation .true.
atom       8.65220265      4.99535153      4.70966259 Au
  constrain_relaxation .true.
atom      11.53627020      4.99535153      4.70966259 Au
  constrain_relaxation .true.
atom       4.32610133      7.49302729      4.70966259 Pd
  constrain_relaxation .true.
atom       7.21016888      7.49302729      4.70966259 Pd
  constrain_relaxation .true.
atom      10.09423643      7.49302729      4.70966259 Au
  constrain_relaxation .true.
atom      12.97830398      7.49302729      4.70966259 Au
  constrain_relaxation .true.
atom       1.44203378      0.83255859      7.06449388 Au
  constrain_relaxation .true.
atom       4.32610133      0.83255859      7.06449388 Au
  constrain_relaxation .true.
atom       7.21016888      0.83255859      7.06449388 Au
  constrain_relaxation .true.
atom      10.09423643      0.83255859      7.06449388 Pd
  constrain_relaxation .true.
atom       2.88406755      3.33023435      7.06449388 Au
  constrain_relaxation .true.
atom       5.76813510      3.33023435      7.06449388 Pd
  constrain_relaxation .true.
atom       8.65220265      3.33023435      7.06449388 Pd
  constrain_relaxation .true.
atom      11.53627020      3.33023435      7.06449388 Au
  constrain_relaxation .true.
atom       4.32610133      5.82791012      7.06449388 Pd
  constrain_relaxation .true.
atom       7.21016888      5.82791012      7.06449388 Pd
  constrain_relaxation .true.
atom      10.09423643      5.82791012      7.06449388 Pd
  constrain_relaxation .true.
atom      12.97830398      5.82791012      7.06449388 Au
  constrain_relaxation .true.
atom       5.76813510      8.32558588      7.06449388 Au
  constrain_relaxation .true.
atom       8.65220265      8.32558588      7.06449388 Au
  constrain_relaxation .true.
atom      11.53627020      8.32558588      7.06449388 Au
  constrain_relaxation .true.
atom      14.42033775      8.32558588      7.06449388 Au
  constrain_relaxation .true.
atom       0.00000000      1.66511718      9.41932518 Au
  constrain_relaxation .true.
atom       2.88406755      1.66511718      9.41932518 Pd
  constrain_relaxation .true.
atom       5.76813510      1.66511718      9.41932518 Au
  constrain_relaxation .true.
atom       8.65220265      1.66511718      9.41932518 Pd
  constrain_relaxation .true.
atom       1.44203378      4.16279294      9.41932518 Au
  constrain_relaxation .true.
atom       4.32610133      4.16279294      9.41932518 Au
  constrain_relaxation .true.
atom       7.21016888      4.16279294      9.41932518 Pd
  constrain_relaxation .true.
atom      10.09423643      4.16279294      9.41932518 Au
  constrain_relaxation .true.
atom       2.88406755      6.66046871      9.41932518 Au
  constrain_relaxation .true.
atom       5.76813510      6.66046871      9.41932518 Au
  constrain_relaxation .true.
atom       8.65220265      6.66046871      9.41932518 Au
  constrain_relaxation .true.
atom      11.53627020      6.66046871      9.41932518 Pd
  constrain_relaxation .true.
atom       4.32610133      9.15814447      9.41932518 Au
  constrain_relaxation .true.
atom       7.21016888      9.15814447      9.41932518 Au
  constrain_relaxation .true.
atom      10.09423643      9.15814447      9.41932518 Au
  constrain_relaxation .true.
atom      12.97830398      9.15814447      9.41932518 Pd
  constrain_relaxation .true.
atom      -0.01644993      0.01033199     11.86706159 Au
atom       2.87245186      0.02827792     11.82624040 Au
atom       5.79191859      0.03737137     11.79912328 Au
atom       8.63236915      0.03118393     11.77026303 Au
atom       1.44654783      2.48257591     11.82385038 Au
atom       4.32470002      2.49918434     11.82080729 Au
atom       7.19128159      2.50462771     11.69479631 Pd
atom      10.04693056      2.48948292     11.76518514 Au
atom       2.91925360      5.00053245     11.86252848 Au
atom       5.77281717      4.97228545     11.81062972 Au
atom       8.56187252      4.95737119     11.73898055 Pd
atom      11.60344912      4.98354044     11.78688309 Au
atom       4.32194478      7.50644262     11.86752883 Au
atom       7.18944574      7.50356346     11.81421013 Au
atom      10.11147492      7.55728503     11.78512445 Au
atom      12.99782480      7.51974682     11.75838673 Au
atom       9.09187956      5.24288460     13.66997665 O
atom      10.24247284      5.92151940     13.63341998 O
# 
# What follows is the current estimated Hessian matrix constructed by the BFGS algorithm.
# This is NOT the true Hessian matrix of the system.
# If you do not want this information here, switch it off using the "hessian_to_restart_geometry" keyword.
# 
trust_radius             0.0223791599
hessian_file
