# 
# This is the geometry file that corresponds to the current relaxation step.
# If you do not want this file to be written, set the "write_restart_geometry" flag to .false.
#  aims_uuid : DE6E9F18-22EA-4E02-A77C-B2BCFEA52FD4                                
# 
lattice_vector     11.53627020      0.00000000      0.00000000
lattice_vector      5.76813510      9.99070306      0.00000000
lattice_vector      0.00000000      0.00000000     41.77415647
atom       1.44203378      0.83255859      0.00000000 Au
  constrain_relaxation .true.
atom       4.32610133      0.83255859      0.00000000 Pd
  constrain_relaxation .true.
atom       7.21016888      0.83255859      0.00000000 Au
  constrain_relaxation .true.
atom      10.09423643      0.83255859      0.00000000 Au
  constrain_relaxation .true.
atom       2.88406755      3.33023435      0.00000000 Au
  constrain_relaxation .true.
atom       5.76813510      3.33023435      0.00000000 Au
  constrain_relaxation .true.
atom       8.65220265      3.33023435      0.00000000 Au
  constrain_relaxation .true.
atom      11.53627020      3.33023435      0.00000000 Au
  constrain_relaxation .true.
atom       4.32610133      5.82791012      0.00000000 Au
  constrain_relaxation .true.
atom       7.21016888      5.82791012      0.00000000 Pd
  constrain_relaxation .true.
atom      10.09423643      5.82791012      0.00000000 Au
  constrain_relaxation .true.
atom      12.97830398      5.82791012      0.00000000 Au
  constrain_relaxation .true.
atom       5.76813510      8.32558588      0.00000000 Au
  constrain_relaxation .true.
atom       8.65220265      8.32558588      0.00000000 Pd
  constrain_relaxation .true.
atom      11.53627020      8.32558588      0.00000000 Pd
  constrain_relaxation .true.
atom      14.42033775      8.32558588      0.00000000 Pd
  constrain_relaxation .true.
atom       0.00000000      1.66511718      2.35483129 Au
  constrain_relaxation .true.
atom       2.88406755      1.66511718      2.35483129 Pd
  constrain_relaxation .true.
atom       5.76813510      1.66511718      2.35483129 Au
  constrain_relaxation .true.
atom       8.65220265      1.66511718      2.35483129 Au
  constrain_relaxation .true.
atom       1.44203378      4.16279294      2.35483129 Au
  constrain_relaxation .true.
atom       4.32610133      4.16279294      2.35483129 Au
  constrain_relaxation .true.
atom       7.21016888      4.16279294      2.35483129 Au
  constrain_relaxation .true.
atom      10.09423643      4.16279294      2.35483129 Pd
  constrain_relaxation .true.
atom       2.88406755      6.66046871      2.35483129 Au
  constrain_relaxation .true.
atom       5.76813510      6.66046871      2.35483129 Au
  constrain_relaxation .true.
atom       8.65220265      6.66046871      2.35483129 Au
  constrain_relaxation .true.
atom      11.53627020      6.66046871      2.35483129 Pd
  constrain_relaxation .true.
atom       4.32610133      9.15814447      2.35483129 Au
  constrain_relaxation .true.
atom       7.21016888      9.15814447      2.35483129 Au
  constrain_relaxation .true.
atom      10.09423643      9.15814447      2.35483129 Au
  constrain_relaxation .true.
atom      12.97830398      9.15814447      2.35483129 Pd
  constrain_relaxation .true.
atom       0.00000000      0.00000000      4.70966259 Au
  constrain_relaxation .true.
atom       2.88406755      0.00000000      4.70966259 Au
  constrain_relaxation .true.
atom       5.76813510      0.00000000      4.70966259 Au
  constrain_relaxation .true.
atom       8.65220265      0.00000000      4.70966259 Au
  constrain_relaxation .true.
atom       1.44203378      2.49767576      4.70966259 Pd
  constrain_relaxation .true.
atom       4.32610133      2.49767576      4.70966259 Au
  constrain_relaxation .true.
atom       7.21016888      2.49767576      4.70966259 Au
  constrain_relaxation .true.
atom      10.09423643      2.49767576      4.70966259 Au
  constrain_relaxation .true.
atom       2.88406755      4.99535153      4.70966259 Pd
  constrain_relaxation .true.
atom       5.76813510      4.99535153      4.70966259 Pd
  constrain_relaxation .true.
atom       8.65220265      4.99535153      4.70966259 Au
  constrain_relaxation .true.
atom      11.53627020      4.99535153      4.70966259 Au
  constrain_relaxation .true.
atom       4.32610133      7.49302729      4.70966259 Pd
  constrain_relaxation .true.
atom       7.21016888      7.49302729      4.70966259 Pd
  constrain_relaxation .true.
atom      10.09423643      7.49302729      4.70966259 Au
  constrain_relaxation .true.
atom      12.97830398      7.49302729      4.70966259 Au
  constrain_relaxation .true.
atom       1.44203378      0.83255859      7.06449388 Au
  constrain_relaxation .true.
atom       4.32610133      0.83255859      7.06449388 Au
  constrain_relaxation .true.
atom       7.21016888      0.83255859      7.06449388 Au
  constrain_relaxation .true.
atom      10.09423643      0.83255859      7.06449388 Pd
  constrain_relaxation .true.
atom       2.88406755      3.33023435      7.06449388 Au
  constrain_relaxation .true.
atom       5.76813510      3.33023435      7.06449388 Pd
  constrain_relaxation .true.
atom       8.65220265      3.33023435      7.06449388 Pd
  constrain_relaxation .true.
atom      11.53627020      3.33023435      7.06449388 Au
  constrain_relaxation .true.
atom       4.32610133      5.82791012      7.06449388 Pd
  constrain_relaxation .true.
atom       7.21016888      5.82791012      7.06449388 Pd
  constrain_relaxation .true.
atom      10.09423643      5.82791012      7.06449388 Pd
  constrain_relaxation .true.
atom      12.97830398      5.82791012      7.06449388 Au
  constrain_relaxation .true.
atom       5.76813510      8.32558588      7.06449388 Au
  constrain_relaxation .true.
atom       8.65220265      8.32558588      7.06449388 Au
  constrain_relaxation .true.
atom      11.53627020      8.32558588      7.06449388 Au
  constrain_relaxation .true.
atom      14.42033775      8.32558588      7.06449388 Au
  constrain_relaxation .true.
atom       0.00000000      1.66511718      9.41932518 Au
  constrain_relaxation .true.
atom       2.88406755      1.66511718      9.41932518 Pd
  constrain_relaxation .true.
atom       5.76813510      1.66511718      9.41932518 Au
  constrain_relaxation .true.
atom       8.65220265      1.66511718      9.41932518 Pd
  constrain_relaxation .true.
atom       1.44203378      4.16279294      9.41932518 Au
  constrain_relaxation .true.
atom       4.32610133      4.16279294      9.41932518 Au
  constrain_relaxation .true.
atom       7.21016888      4.16279294      9.41932518 Pd
  constrain_relaxation .true.
atom      10.09423643      4.16279294      9.41932518 Au
  constrain_relaxation .true.
atom       2.88406755      6.66046871      9.41932518 Au
  constrain_relaxation .true.
atom       5.76813510      6.66046871      9.41932518 Au
  constrain_relaxation .true.
atom       8.65220265      6.66046871      9.41932518 Au
  constrain_relaxation .true.
atom      11.53627020      6.66046871      9.41932518 Pd
  constrain_relaxation .true.
atom       4.32610133      9.15814447      9.41932518 Au
  constrain_relaxation .true.
atom       7.21016888      9.15814447      9.41932518 Au
  constrain_relaxation .true.
atom      10.09423643      9.15814447      9.41932518 Au
  constrain_relaxation .true.
atom      12.97830398      9.15814447      9.41932518 Pd
  constrain_relaxation .true.
atom       0.00234507      0.00109467     11.85822104 Au
atom       2.88618017      0.01111194     11.82012181 Au
atom       5.77989399      0.00301283     11.79673940 Au
atom       8.64812471      0.01113234     11.76659786 Au
atom       1.44583669      2.49916722     11.82102092 Au
atom       4.32178605      2.50090453     11.80774407 Au
atom       7.23864913      2.53102250     11.76252411 Au
atom      10.08589375      2.51340164     11.80247534 Au
atom       2.89824997      5.00136133     11.85027144 Au
atom       5.80570747      4.99344280     11.80920549 Au
atom       8.66191163      5.01035225     11.70967882 Pd
atom      11.52807354      5.00905508     11.80945096 Au
atom       4.33200440      7.49458067     11.86055626 Au
atom       7.22679286      7.48654507     11.85216061 Au
atom      10.10009445      7.47965321     11.80810901 Au
atom      12.97499598      7.49826992     11.77250333 Au
# 
# What follows is the current estimated Hessian matrix constructed by the BFGS algorithm.
# This is NOT the true Hessian matrix of the system.
# If you do not want this information here, switch it off using the "hessian_to_restart_geometry" keyword.
# 
trust_radius             0.0889144464
hessian_file
