# 
# This is the geometry file that corresponds to the current relaxation step.
# If you do not want this file to be written, set the "write_restart_geometry" flag to .false.
#  aims_uuid : 544475DF-47BD-4C10-ADF7-779CAE2C1A08                                
# 
lattice_vector     11.53627020      0.00000000      0.00000000
lattice_vector      5.76813510      9.99070306      0.00000000
lattice_vector      0.00000000      0.00000000     41.77415647
atom       1.44203378      0.83255859      0.00000000 Au
  constrain_relaxation .true.
atom       4.32610133      0.83255859      0.00000000 Pd
  constrain_relaxation .true.
atom       7.21016888      0.83255859      0.00000000 Au
  constrain_relaxation .true.
atom      10.09423643      0.83255859      0.00000000 Au
  constrain_relaxation .true.
atom       2.88406755      3.33023435      0.00000000 Au
  constrain_relaxation .true.
atom       5.76813510      3.33023435      0.00000000 Au
  constrain_relaxation .true.
atom       8.65220265      3.33023435      0.00000000 Au
  constrain_relaxation .true.
atom      11.53627020      3.33023435      0.00000000 Au
  constrain_relaxation .true.
atom       4.32610133      5.82791012      0.00000000 Au
  constrain_relaxation .true.
atom       7.21016888      5.82791012      0.00000000 Pd
  constrain_relaxation .true.
atom      10.09423643      5.82791012      0.00000000 Au
  constrain_relaxation .true.
atom      12.97830398      5.82791012      0.00000000 Au
  constrain_relaxation .true.
atom       5.76813510      8.32558588      0.00000000 Au
  constrain_relaxation .true.
atom       8.65220265      8.32558588      0.00000000 Pd
  constrain_relaxation .true.
atom      11.53627020      8.32558588      0.00000000 Pd
  constrain_relaxation .true.
atom      14.42033775      8.32558588      0.00000000 Pd
  constrain_relaxation .true.
atom       0.00000000      1.66511718      2.35483129 Au
  constrain_relaxation .true.
atom       2.88406755      1.66511718      2.35483129 Pd
  constrain_relaxation .true.
atom       5.76813510      1.66511718      2.35483129 Au
  constrain_relaxation .true.
atom       8.65220265      1.66511718      2.35483129 Au
  constrain_relaxation .true.
atom       1.44203378      4.16279294      2.35483129 Au
  constrain_relaxation .true.
atom       4.32610133      4.16279294      2.35483129 Au
  constrain_relaxation .true.
atom       7.21016888      4.16279294      2.35483129 Au
  constrain_relaxation .true.
atom      10.09423643      4.16279294      2.35483129 Pd
  constrain_relaxation .true.
atom       2.88406755      6.66046871      2.35483129 Au
  constrain_relaxation .true.
atom       5.76813510      6.66046871      2.35483129 Au
  constrain_relaxation .true.
atom       8.65220265      6.66046871      2.35483129 Au
  constrain_relaxation .true.
atom      11.53627020      6.66046871      2.35483129 Pd
  constrain_relaxation .true.
atom       4.32610133      9.15814447      2.35483129 Au
  constrain_relaxation .true.
atom       7.21016888      9.15814447      2.35483129 Au
  constrain_relaxation .true.
atom      10.09423643      9.15814447      2.35483129 Au
  constrain_relaxation .true.
atom      12.97830398      9.15814447      2.35483129 Pd
  constrain_relaxation .true.
atom       0.00000000      0.00000000      4.70966259 Au
  constrain_relaxation .true.
atom       2.88406755      0.00000000      4.70966259 Au
  constrain_relaxation .true.
atom       5.76813510      0.00000000      4.70966259 Au
  constrain_relaxation .true.
atom       8.65220265      0.00000000      4.70966259 Au
  constrain_relaxation .true.
atom       1.44203378      2.49767576      4.70966259 Pd
  constrain_relaxation .true.
atom       4.32610133      2.49767576      4.70966259 Au
  constrain_relaxation .true.
atom       7.21016888      2.49767576      4.70966259 Au
  constrain_relaxation .true.
atom      10.09423643      2.49767576      4.70966259 Au
  constrain_relaxation .true.
atom       2.88406755      4.99535153      4.70966259 Pd
  constrain_relaxation .true.
atom       5.76813510      4.99535153      4.70966259 Pd
  constrain_relaxation .true.
atom       8.65220265      4.99535153      4.70966259 Au
  constrain_relaxation .true.
atom      11.53627020      4.99535153      4.70966259 Au
  constrain_relaxation .true.
atom       4.32610133      7.49302729      4.70966259 Pd
  constrain_relaxation .true.
atom       7.21016888      7.49302729      4.70966259 Pd
  constrain_relaxation .true.
atom      10.09423643      7.49302729      4.70966259 Au
  constrain_relaxation .true.
atom      12.97830398      7.49302729      4.70966259 Au
  constrain_relaxation .true.
atom       1.44203378      0.83255859      7.06449388 Au
  constrain_relaxation .true.
atom       4.32610133      0.83255859      7.06449388 Au
  constrain_relaxation .true.
atom       7.21016888      0.83255859      7.06449388 Au
  constrain_relaxation .true.
atom      10.09423643      0.83255859      7.06449388 Pd
  constrain_relaxation .true.
atom       2.88406755      3.33023435      7.06449388 Au
  constrain_relaxation .true.
atom       5.76813510      3.33023435      7.06449388 Pd
  constrain_relaxation .true.
atom       8.65220265      3.33023435      7.06449388 Pd
  constrain_relaxation .true.
atom      11.53627020      3.33023435      7.06449388 Au
  constrain_relaxation .true.
atom       4.32610133      5.82791012      7.06449388 Pd
  constrain_relaxation .true.
atom       7.21016888      5.82791012      7.06449388 Pd
  constrain_relaxation .true.
atom      10.09423643      5.82791012      7.06449388 Pd
  constrain_relaxation .true.
atom      12.97830398      5.82791012      7.06449388 Au
  constrain_relaxation .true.
atom       5.76813510      8.32558588      7.06449388 Au
  constrain_relaxation .true.
atom       8.65220265      8.32558588      7.06449388 Au
  constrain_relaxation .true.
atom      11.53627020      8.32558588      7.06449388 Au
  constrain_relaxation .true.
atom      14.42033775      8.32558588      7.06449388 Au
  constrain_relaxation .true.
atom       0.00000000      1.66511718      9.41932518 Au
  constrain_relaxation .true.
atom       2.88406755      1.66511718      9.41932518 Pd
  constrain_relaxation .true.
atom       5.76813510      1.66511718      9.41932518 Au
  constrain_relaxation .true.
atom       8.65220265      1.66511718      9.41932518 Pd
  constrain_relaxation .true.
atom       1.44203378      4.16279294      9.41932518 Au
  constrain_relaxation .true.
atom       4.32610133      4.16279294      9.41932518 Au
  constrain_relaxation .true.
atom       7.21016888      4.16279294      9.41932518 Pd
  constrain_relaxation .true.
atom      10.09423643      4.16279294      9.41932518 Au
  constrain_relaxation .true.
atom       2.88406755      6.66046871      9.41932518 Au
  constrain_relaxation .true.
atom       5.76813510      6.66046871      9.41932518 Au
  constrain_relaxation .true.
atom       8.65220265      6.66046871      9.41932518 Au
  constrain_relaxation .true.
atom      11.53627020      6.66046871      9.41932518 Pd
  constrain_relaxation .true.
atom       4.32610133      9.15814447      9.41932518 Au
  constrain_relaxation .true.
atom       7.21016888      9.15814447      9.41932518 Au
  constrain_relaxation .true.
atom      10.09423643      9.15814447      9.41932518 Au
  constrain_relaxation .true.
atom      12.97830398      9.15814447      9.41932518 Pd
  constrain_relaxation .true.
atom      -0.02494148      0.00341597     11.73828626 Au
atom       2.86902143      0.03372581     11.71479556 Au
atom       5.79967566      0.04424856     11.69864041 Au
atom       8.62227771      0.03661749     11.66834036 Au
atom       1.45296069      2.46553343     11.71150642 Au
atom       4.32256894      2.48820985     11.70928421 Au
atom       7.17574100      2.50125689     11.60200806 Pd
atom      10.03009717      2.48050405     11.65808417 Au
atom       2.93551898      5.00498928     11.74327875 Au
atom       5.75738866      4.95941251     11.69613382 Au
atom       8.49864783      4.91089990     11.61928935 Pd
atom      11.65027407      4.95762400     11.69475415 Au
atom       4.31980200      7.50764225     11.74371272 Au
atom       7.19146614      7.48934222     11.70657689 Au
atom      10.09781403      7.60009146     11.70096370 Au
atom      12.99619082      7.53057978     11.65811685 Au
atom       9.18732198      5.23321509     13.42586321 O
atom      10.32313592      5.91573093     13.27899108 O
# 
# What follows is the current estimated Hessian matrix constructed by the BFGS algorithm.
# This is NOT the true Hessian matrix of the system.
# If you do not want this information here, switch it off using the "hessian_to_restart_geometry" keyword.
# 
trust_radius             0.1768922294
hessian_file
