# 
# This is the geometry file that corresponds to the current relaxation step.
# If you do not want this file to be written, set the "write_restart_geometry" flag to .false.
#  aims_uuid : A5786987-5613-4393-A7CA-1D41B58D4841                                
# 
lattice_vector     11.53627020      0.00000000      0.00000000
lattice_vector      5.76813510      9.99070306      0.00000000
lattice_vector      0.00000000      0.00000000     41.77415647
atom       1.44203378      0.83255859      0.00000000 Au
  constrain_relaxation .true.
atom       4.32610133      0.83255859      0.00000000 Pd
  constrain_relaxation .true.
atom       7.21016888      0.83255859      0.00000000 Au
  constrain_relaxation .true.
atom      10.09423643      0.83255859      0.00000000 Au
  constrain_relaxation .true.
atom       2.88406755      3.33023435      0.00000000 Au
  constrain_relaxation .true.
atom       5.76813510      3.33023435      0.00000000 Au
  constrain_relaxation .true.
atom       8.65220265      3.33023435      0.00000000 Au
  constrain_relaxation .true.
atom      11.53627020      3.33023435      0.00000000 Au
  constrain_relaxation .true.
atom       4.32610133      5.82791012      0.00000000 Au
  constrain_relaxation .true.
atom       7.21016888      5.82791012      0.00000000 Pd
  constrain_relaxation .true.
atom      10.09423643      5.82791012      0.00000000 Au
  constrain_relaxation .true.
atom      12.97830398      5.82791012      0.00000000 Au
  constrain_relaxation .true.
atom       5.76813510      8.32558588      0.00000000 Au
  constrain_relaxation .true.
atom       8.65220265      8.32558588      0.00000000 Pd
  constrain_relaxation .true.
atom      11.53627020      8.32558588      0.00000000 Pd
  constrain_relaxation .true.
atom      14.42033775      8.32558588      0.00000000 Pd
  constrain_relaxation .true.
atom       0.00000000      1.66511718      2.35483129 Au
  constrain_relaxation .true.
atom       2.88406755      1.66511718      2.35483129 Pd
  constrain_relaxation .true.
atom       5.76813510      1.66511718      2.35483129 Au
  constrain_relaxation .true.
atom       8.65220265      1.66511718      2.35483129 Au
  constrain_relaxation .true.
atom       1.44203378      4.16279294      2.35483129 Au
  constrain_relaxation .true.
atom       4.32610133      4.16279294      2.35483129 Au
  constrain_relaxation .true.
atom       7.21016888      4.16279294      2.35483129 Au
  constrain_relaxation .true.
atom      10.09423643      4.16279294      2.35483129 Pd
  constrain_relaxation .true.
atom       2.88406755      6.66046871      2.35483129 Au
  constrain_relaxation .true.
atom       5.76813510      6.66046871      2.35483129 Au
  constrain_relaxation .true.
atom       8.65220265      6.66046871      2.35483129 Au
  constrain_relaxation .true.
atom      11.53627020      6.66046871      2.35483129 Pd
  constrain_relaxation .true.
atom       4.32610133      9.15814447      2.35483129 Au
  constrain_relaxation .true.
atom       7.21016888      9.15814447      2.35483129 Au
  constrain_relaxation .true.
atom      10.09423643      9.15814447      2.35483129 Au
  constrain_relaxation .true.
atom      12.97830398      9.15814447      2.35483129 Pd
  constrain_relaxation .true.
atom       0.00000000      0.00000000      4.70966259 Au
  constrain_relaxation .true.
atom       2.88406755      0.00000000      4.70966259 Au
  constrain_relaxation .true.
atom       5.76813510      0.00000000      4.70966259 Au
  constrain_relaxation .true.
atom       8.65220265      0.00000000      4.70966259 Au
  constrain_relaxation .true.
atom       1.44203378      2.49767576      4.70966259 Pd
  constrain_relaxation .true.
atom       4.32610133      2.49767576      4.70966259 Au
  constrain_relaxation .true.
atom       7.21016888      2.49767576      4.70966259 Au
  constrain_relaxation .true.
atom      10.09423643      2.49767576      4.70966259 Au
  constrain_relaxation .true.
atom       2.88406755      4.99535153      4.70966259 Pd
  constrain_relaxation .true.
atom       5.76813510      4.99535153      4.70966259 Pd
  constrain_relaxation .true.
atom       8.65220265      4.99535153      4.70966259 Au
  constrain_relaxation .true.
atom      11.53627020      4.99535153      4.70966259 Au
  constrain_relaxation .true.
atom       4.32610133      7.49302729      4.70966259 Pd
  constrain_relaxation .true.
atom       7.21016888      7.49302729      4.70966259 Pd
  constrain_relaxation .true.
atom      10.09423643      7.49302729      4.70966259 Au
  constrain_relaxation .true.
atom      12.97830398      7.49302729      4.70966259 Au
  constrain_relaxation .true.
atom       1.44203378      0.83255859      7.06449388 Au
  constrain_relaxation .true.
atom       4.32610133      0.83255859      7.06449388 Au
  constrain_relaxation .true.
atom       7.21016888      0.83255859      7.06449388 Au
  constrain_relaxation .true.
atom      10.09423643      0.83255859      7.06449388 Pd
  constrain_relaxation .true.
atom       2.88406755      3.33023435      7.06449388 Au
  constrain_relaxation .true.
atom       5.76813510      3.33023435      7.06449388 Pd
  constrain_relaxation .true.
atom       8.65220265      3.33023435      7.06449388 Pd
  constrain_relaxation .true.
atom      11.53627020      3.33023435      7.06449388 Au
  constrain_relaxation .true.
atom       4.32610133      5.82791012      7.06449388 Pd
  constrain_relaxation .true.
atom       7.21016888      5.82791012      7.06449388 Pd
  constrain_relaxation .true.
atom      10.09423643      5.82791012      7.06449388 Pd
  constrain_relaxation .true.
atom      12.97830398      5.82791012      7.06449388 Au
  constrain_relaxation .true.
atom       5.76813510      8.32558588      7.06449388 Au
  constrain_relaxation .true.
atom       8.65220265      8.32558588      7.06449388 Au
  constrain_relaxation .true.
atom      11.53627020      8.32558588      7.06449388 Au
  constrain_relaxation .true.
atom      14.42033775      8.32558588      7.06449388 Au
  constrain_relaxation .true.
atom       0.00000000      1.66511718      9.41932518 Au
  constrain_relaxation .true.
atom       2.88406755      1.66511718      9.41932518 Pd
  constrain_relaxation .true.
atom       5.76813510      1.66511718      9.41932518 Au
  constrain_relaxation .true.
atom       8.65220265      1.66511718      9.41932518 Pd
  constrain_relaxation .true.
atom       1.44203378      4.16279294      9.41932518 Au
  constrain_relaxation .true.
atom       4.32610133      4.16279294      9.41932518 Au
  constrain_relaxation .true.
atom       7.21016888      4.16279294      9.41932518 Pd
  constrain_relaxation .true.
atom      10.09423643      4.16279294      9.41932518 Au
  constrain_relaxation .true.
atom       2.88406755      6.66046871      9.41932518 Au
  constrain_relaxation .true.
atom       5.76813510      6.66046871      9.41932518 Au
  constrain_relaxation .true.
atom       8.65220265      6.66046871      9.41932518 Au
  constrain_relaxation .true.
atom      11.53627020      6.66046871      9.41932518 Pd
  constrain_relaxation .true.
atom       4.32610133      9.15814447      9.41932518 Au
  constrain_relaxation .true.
atom       7.21016888      9.15814447      9.41932518 Au
  constrain_relaxation .true.
atom      10.09423643      9.15814447      9.41932518 Au
  constrain_relaxation .true.
atom      12.97830398      9.15814447      9.41932518 Pd
  constrain_relaxation .true.
atom      -0.00185016     -0.00162573     11.86583317 Au
atom       2.88262859      0.01039234     11.82549143 Au
atom       5.77445162     -0.00399365     11.80189305 Au
atom       8.64525112      0.00322171     11.77163715 Au
atom       1.44456480      2.49515459     11.82664119 Au
atom       4.31145221      2.49443717     11.81284026 Au
atom       7.21904261      2.50528835     11.76909049 Au
atom      10.09255675      2.49207562     11.80972144 Au
atom       2.88950160      4.99941353     11.85561358 Au
atom       5.77239805      4.98963676     11.81811646 Au
atom       8.64161837      4.99363470     11.80972778 Au
atom      11.53681231      5.00454975     11.81857352 Au
atom       4.32417111      7.49397073     11.86484310 Au
atom       7.21078620      7.50064691     11.86272759 Au
atom      10.09975603      7.48684557     11.81731248 Au
atom      12.97133048      7.49603201     11.77475828 Au
# 
# What follows is the current estimated Hessian matrix constructed by the BFGS algorithm.
# This is NOT the true Hessian matrix of the system.
# If you do not want this information here, switch it off using the "hessian_to_restart_geometry" keyword.
# 
trust_radius             0.1274138528
hessian_file
