# 
# This is the geometry file that corresponds to the current relaxation step.
# If you do not want this file to be written, set the "write_restart_geometry" flag to .false.
#  aims_uuid : 4F22D806-0CC0-433C-A0B9-8B3E33E11C28                                
# 
lattice_vector     11.53627020      0.00000000      0.00000000
lattice_vector      5.76813510      9.99070306      0.00000000
lattice_vector      0.00000000      0.00000000     41.77415647
atom       1.44203378      0.83255859      0.00000000 Au
  constrain_relaxation .true.
atom       4.32610133      0.83255859      0.00000000 Pd
  constrain_relaxation .true.
atom       7.21016888      0.83255859      0.00000000 Au
  constrain_relaxation .true.
atom      10.09423643      0.83255859      0.00000000 Au
  constrain_relaxation .true.
atom       2.88406755      3.33023435      0.00000000 Au
  constrain_relaxation .true.
atom       5.76813510      3.33023435      0.00000000 Au
  constrain_relaxation .true.
atom       8.65220265      3.33023435      0.00000000 Au
  constrain_relaxation .true.
atom      11.53627020      3.33023435      0.00000000 Au
  constrain_relaxation .true.
atom       4.32610133      5.82791012      0.00000000 Au
  constrain_relaxation .true.
atom       7.21016888      5.82791012      0.00000000 Pd
  constrain_relaxation .true.
atom      10.09423643      5.82791012      0.00000000 Au
  constrain_relaxation .true.
atom      12.97830398      5.82791012      0.00000000 Au
  constrain_relaxation .true.
atom       5.76813510      8.32558588      0.00000000 Au
  constrain_relaxation .true.
atom       8.65220265      8.32558588      0.00000000 Pd
  constrain_relaxation .true.
atom      11.53627020      8.32558588      0.00000000 Pd
  constrain_relaxation .true.
atom      14.42033775      8.32558588      0.00000000 Pd
  constrain_relaxation .true.
atom       0.00000000      1.66511718      2.35483129 Au
  constrain_relaxation .true.
atom       2.88406755      1.66511718      2.35483129 Pd
  constrain_relaxation .true.
atom       5.76813510      1.66511718      2.35483129 Au
  constrain_relaxation .true.
atom       8.65220265      1.66511718      2.35483129 Au
  constrain_relaxation .true.
atom       1.44203378      4.16279294      2.35483129 Au
  constrain_relaxation .true.
atom       4.32610133      4.16279294      2.35483129 Au
  constrain_relaxation .true.
atom       7.21016888      4.16279294      2.35483129 Au
  constrain_relaxation .true.
atom      10.09423643      4.16279294      2.35483129 Pd
  constrain_relaxation .true.
atom       2.88406755      6.66046871      2.35483129 Au
  constrain_relaxation .true.
atom       5.76813510      6.66046871      2.35483129 Au
  constrain_relaxation .true.
atom       8.65220265      6.66046871      2.35483129 Au
  constrain_relaxation .true.
atom      11.53627020      6.66046871      2.35483129 Pd
  constrain_relaxation .true.
atom       4.32610133      9.15814447      2.35483129 Au
  constrain_relaxation .true.
atom       7.21016888      9.15814447      2.35483129 Au
  constrain_relaxation .true.
atom      10.09423643      9.15814447      2.35483129 Au
  constrain_relaxation .true.
atom      12.97830398      9.15814447      2.35483129 Pd
  constrain_relaxation .true.
atom       0.00000000      0.00000000      4.70966259 Au
  constrain_relaxation .true.
atom       2.88406755      0.00000000      4.70966259 Au
  constrain_relaxation .true.
atom       5.76813510      0.00000000      4.70966259 Au
  constrain_relaxation .true.
atom       8.65220265      0.00000000      4.70966259 Au
  constrain_relaxation .true.
atom       1.44203378      2.49767576      4.70966259 Pd
  constrain_relaxation .true.
atom       4.32610133      2.49767576      4.70966259 Au
  constrain_relaxation .true.
atom       7.21016888      2.49767576      4.70966259 Au
  constrain_relaxation .true.
atom      10.09423643      2.49767576      4.70966259 Au
  constrain_relaxation .true.
atom       2.88406755      4.99535153      4.70966259 Pd
  constrain_relaxation .true.
atom       5.76813510      4.99535153      4.70966259 Pd
  constrain_relaxation .true.
atom       8.65220265      4.99535153      4.70966259 Au
  constrain_relaxation .true.
atom      11.53627020      4.99535153      4.70966259 Au
  constrain_relaxation .true.
atom       4.32610133      7.49302729      4.70966259 Pd
  constrain_relaxation .true.
atom       7.21016888      7.49302729      4.70966259 Pd
  constrain_relaxation .true.
atom      10.09423643      7.49302729      4.70966259 Au
  constrain_relaxation .true.
atom      12.97830398      7.49302729      4.70966259 Au
  constrain_relaxation .true.
atom       1.44203378      0.83255859      7.06449388 Au
  constrain_relaxation .true.
atom       4.32610133      0.83255859      7.06449388 Au
  constrain_relaxation .true.
atom       7.21016888      0.83255859      7.06449388 Au
  constrain_relaxation .true.
atom      10.09423643      0.83255859      7.06449388 Pd
  constrain_relaxation .true.
atom       2.88406755      3.33023435      7.06449388 Au
  constrain_relaxation .true.
atom       5.76813510      3.33023435      7.06449388 Pd
  constrain_relaxation .true.
atom       8.65220265      3.33023435      7.06449388 Pd
  constrain_relaxation .true.
atom      11.53627020      3.33023435      7.06449388 Au
  constrain_relaxation .true.
atom       4.32610133      5.82791012      7.06449388 Pd
  constrain_relaxation .true.
atom       7.21016888      5.82791012      7.06449388 Pd
  constrain_relaxation .true.
atom      10.09423643      5.82791012      7.06449388 Pd
  constrain_relaxation .true.
atom      12.97830398      5.82791012      7.06449388 Au
  constrain_relaxation .true.
atom       5.76813510      8.32558588      7.06449388 Au
  constrain_relaxation .true.
atom       8.65220265      8.32558588      7.06449388 Au
  constrain_relaxation .true.
atom      11.53627020      8.32558588      7.06449388 Au
  constrain_relaxation .true.
atom      14.42033775      8.32558588      7.06449388 Au
  constrain_relaxation .true.
atom       0.00000000      1.66511718      9.41932518 Au
  constrain_relaxation .true.
atom       2.88406755      1.66511718      9.41932518 Pd
  constrain_relaxation .true.
atom       5.76813510      1.66511718      9.41932518 Au
  constrain_relaxation .true.
atom       8.65220265      1.66511718      9.41932518 Pd
  constrain_relaxation .true.
atom       1.44203378      4.16279294      9.41932518 Au
  constrain_relaxation .true.
atom       4.32610133      4.16279294      9.41932518 Au
  constrain_relaxation .true.
atom       7.21016888      4.16279294      9.41932518 Pd
  constrain_relaxation .true.
atom      10.09423643      4.16279294      9.41932518 Au
  constrain_relaxation .true.
atom       2.88406755      6.66046871      9.41932518 Au
  constrain_relaxation .true.
atom       5.76813510      6.66046871      9.41932518 Au
  constrain_relaxation .true.
atom       8.65220265      6.66046871      9.41932518 Au
  constrain_relaxation .true.
atom      11.53627020      6.66046871      9.41932518 Pd
  constrain_relaxation .true.
atom       4.32610133      9.15814447      9.41932518 Au
  constrain_relaxation .true.
atom       7.21016888      9.15814447      9.41932518 Au
  constrain_relaxation .true.
atom      10.09423643      9.15814447      9.41932518 Au
  constrain_relaxation .true.
atom      12.97830398      9.15814447      9.41932518 Pd
  constrain_relaxation .true.
atom      -0.00163077     -0.00246031     11.86479892 Au
atom       2.88262486      0.01002048     11.82444042 Au
atom       5.77484143     -0.00421625     11.80047816 Au
atom       8.64477584      0.00272061     11.77027099 Au
atom       1.44471583      2.49451977     11.82557567 Au
atom       4.31136688      2.49397734     11.81140334 Au
atom       7.21921329      2.50494469     11.76731562 Au
atom      10.09232926      2.49186702     11.80796820 Au
atom       2.89021649      4.99949113     11.85465171 Au
atom       5.77217477      4.98935538     11.81617406 Au
atom       8.64159564      4.99331387     11.80797337 Au
atom      11.53626211      5.00439265     11.81694352 Au
atom       4.32416766      7.49315654     11.86332664 Au
atom       7.21089700      7.50053742     11.86138671 Au
atom      10.09959335      7.48576813     11.81581242 Au
atom      12.97149574      7.49554738     11.77303295 Au
# 
# What follows is the current estimated Hessian matrix constructed by the BFGS algorithm.
# This is NOT the true Hessian matrix of the system.
# If you do not want this information here, switch it off using the "hessian_to_restart_geometry" keyword.
# 
trust_radius             0.1274138528
hessian_file
